 CONTCAR_0_1                            
   1.00000000000000     
    19.4370994567999986    0.0000000000000000    0.0000000000000000
    -9.7185497283999993   16.8330219055000008    0.0000000000000000
     0.0000000000000000    0.0000000000000000   22.0000000000000000
   Pt   P 
   162    18
Selective dynamics
Direct
  0.6683406095127038  0.0432751698216660  0.3263172364795375   T   T   T
  0.6375659539096005  0.4745511518852616  0.4378744884551428   T   T   T
  0.7064686911010982  0.3857414869466352  0.4615247132931982   T   T   T
  0.6634811381266830  0.9607516300916126  0.2217604823739420   T   T   T
  0.5768483005412638  0.1277244277974414  0.3252048434990627   T   T   T
  0.9939500090000024  0.7932999730000034  0.1172699999999978   F   F   F
  0.9113615577055824  0.5524029954089242  0.3262630990077557   T   T   T
  0.4191752190024459  0.6730500760664220  0.4608386698535236   T   T   T
  0.8642990571463445  0.3170053331058627  0.4378871223061142   T   T   T
  0.6686360358797491  0.5524817407540232  0.3269511740116213   T   T   T
  0.4804988375571501  0.3169904082467784  0.4368509884694896   T   T   T
  0.8262599709999989  0.9607200029999987  0.1173100020000035   F   F   F
  0.3267746570911144  0.5443432962143648  0.2216385424108618   T   T   T
  0.2813061177996640  0.5354372044896066  0.4608464069052755   T   T   T
  0.1586194687133320  0.2889857953043360  0.3426032641512836   T   T   T
  0.9123618210627520  0.7976326574950180  0.3304838053036408   T   T   T
  0.8297247437989808  0.7965360047919677  0.2214432218954561   T   T   T
  0.5688347995698527  0.2479671262165224  0.4615641744639793   T   T   T
  0.8277300000000025  0.2112700050000029  0.1172100009999966   F   F   F
  0.8300852340271273  0.6321376787420404  0.3426738891596322   T   T   T
  0.9939399960000017  0.0445800009999999  0.1162099989999987   F   F   F
  0.5772699709999998  0.4607099890000015  0.1162300040000019   F   F   F
  0.6611999870000034  0.3776699900000011  0.1165700029999996   F   F   F
  0.8269105408209152  0.3764798113741449  0.3251824602977694   T   T   T
  0.3240425426622567  0.0436117060142122  0.2234998518909815   T   T   T
  0.1569136164176576  0.0418944729901049  0.3305566890850171   T   T   T
  0.3224515956334096  0.1250838858710197  0.3427519023587698   T   T   T
  0.9939330439472998  0.6302301863897439  0.2216799229771255   T   T   T
  0.4946098296288239  0.6263889851589086  0.2213856012668420   T   T   T
  0.4959486630720241  0.4626051503827714  0.3260328097619294   T   T   T
  0.4799762808137789  0.0902689857267182  0.4379306793234511   T   T   T
  0.5081315926084786  0.6042083237563974  0.4379262762479824   T   T   T
  0.2447499929999992  0.0454000009999973  0.1171699989999979   F   F   F
  0.3244428610602520  0.2911223326163548  0.2218729430572112   T   T   T
  0.5076863416288668  0.8305702005985756  0.4367200905772029   T   T   T
  0.1240039767124288  0.6042946796228270  0.4366375962085975   T   T   T
  0.6606399869875392  0.2939790932442147  0.3307211126456454   T   T   T
  0.5794541469904936  0.0443597641864916  0.2211057374839352   T   T   T
  0.4083684588644942  0.2076954634214330  0.2222254375956923   T   T   T
  0.0763092411144644  0.6348092768824357  0.3262083264919981   T   T   T
  0.2410121790313822  0.3750845307168004  0.2222484541086967   T   T   T
  0.7066122511825796  0.2481267335116122  0.4615079968384723   T   T   T
  0.0769106618143731  0.3687548644395674  0.3269294829534969   T   T   T
  0.5776180104978047  0.2934879830728745  0.2215750323645535   T   T   T
  0.2354202051937379  0.2019230615728283  0.3295612702500459   T   T   T
  0.9103135170659692  0.4626322102048373  0.2210451177332035   T   T   T
  0.8290145440590939  0.2951215845981173  0.2213092485938188   T   T   T
  0.2447220410597826  0.6278410096400781  0.2215518148349949   T   T   T
  0.4936881305118070  0.2111703639059118  0.3243827666182378   T   T   T
  0.1234688237040044  0.4464552581479547  0.4378640114249763   T   T   T
  0.1602000000000032  0.3775100109999983  0.1172600020000019   F   F   F
  0.9104200009999985  0.6270599959999998  0.1172899979999968   F   F   F
  0.7434200049999973  0.0441199990000030  0.1172699999999978   F   F   F
  0.9938914456281088  0.7191401249394087  0.3293916426254225   T   T   T
  0.2445999979999982  0.7947000269999975  0.1172500030000023   F   F   F
  0.7434164902765821  0.2098848202524149  0.3243136114857089   T   T   T
  0.3265999850000014  0.9609400029999975  0.1163799990000030   F   F   F
  0.1594600084630589  0.2100755542934216  0.2254483809749784   T   T   T
  0.9102100129999968  0.8770700099999971  0.1161999999999992   F   F   F
  0.9939600229999996  0.5439199810000019  0.1169900000000013   F   F   F
  0.0768612323211200  0.2907569291734143  0.2234145865045443   T   T   T
  0.7526356282776721  0.9607696980610879  0.3294505310043718   T   T   T
  0.8293808258213419  0.1246069700911960  0.3426780150974022   T   T   T
  0.7466951017543367  0.6306125565949453  0.2234649488067103   T   T   T
  0.2443300039999983  0.5438299779999980  0.1165400000000005   F   F   F
  0.4106400009999973  0.8774399759999980  0.1161800029999966   F   F   F
  0.9110998408108373  0.2079851829320682  0.2234663876288427   T   T   T
  0.0784599999999998  0.2115599959999983  0.1171699989999979   F   F   F
  0.9939594351847203  0.4586099731394068  0.3259784597998415   T   T   T
  0.9093700049999995  0.1270100030000023  0.1171599999999984   F   F   F
  0.5770800109999996  0.7101699709999991  0.1172799989999973   F   F   F
  0.7431100009999980  0.7945299739999996  0.1171500009999988   F   F   F
  0.1616200059999997  0.1285000000000025  0.1173300000000026   F   F   F
  0.3282906372433521  0.7956688964177896  0.2213406252590025   T   T   T
  0.9111273428966860  0.2860179458297152  0.3269559322325157   T   T   T
  0.7432119908457714  0.3771210652154127  0.2215310208813983   T   T   T
  0.4919989247027685  0.9606614503940399  0.3260210014814955   T   T   T
  0.3270399869999991  0.4609799979999991  0.1165999990000017   F   F   F
  0.2412322875926871  0.8778424577100400  0.2234556528269498   T   T   T
  0.7519509863970703  0.7185978606029996  0.3279177187451657   T   T   T
  0.9106400009999973  0.3774799999999985  0.1162300040000019   F   F   F
  0.4936499889999979  0.7935000060000021  0.1165099959999978   F   F   F
  0.1590117767963710  0.4599912854579945  0.2213742528705261   T   T   T
  0.5769100190000032  0.9607499840000031  0.1170200030000004   F   F   F
  0.0755952107995072  0.8792693608042285  0.3305413536301069   T   T   T
  0.2360579382052370  0.9605763628143564  0.3278801543525220   T   T   T
  0.5858735781230441  0.6354776836434760  0.3269711745245155   T   T   T
  0.4939900039999969  0.0441900009999969  0.1162300040000019   F   F   F
  0.6595278735760268  0.4613217302673406  0.2213159153100275   T   T   T
  0.4084264757190318  0.4588552205657602  0.2211575524861268   T   T   T
  0.9939403214179007  0.8774545403189462  0.2219049694524332   T   T   T
  0.9939664889621560  0.2027239331300811  0.3278702422746499   T   T   T
  0.4109599889999984  0.3777399960000025  0.1170900019999976   F   F   F
  0.6638812797658021  0.7135205564484758  0.2234835440113999   T   T   T
  0.4957887330610979  0.8769869667643047  0.2210936924973504   T   T   T
  0.8638139680407577  0.4741422051833786  0.4367787595635941   T   T   T
  0.9126517068212330  0.0422740037761521  0.3305071116525704   T   T   T
  0.8267899749999970  0.4605700079999977  0.1164899990000023   F   F   F
  0.9939636148977525  0.9605969493600998  0.3281488944790834   T   T   T
  0.0772221144761698  0.0439585949618154  0.2219001589793868   T   T   T
  0.1577230861344458  0.7958999020104280  0.3425604139721692   T   T   T
  0.1610072070859825  0.5433234162940560  0.3252270620763580   T   T   T
  0.3503155582898975  0.4469588565472388  0.4367736593631427   T   T   T
  0.4090742727750691  0.9606912842475838  0.2207022173695426   T   T   T
  0.3197467607660182  0.3687313415826319  0.3263695510428803   T   T   T
  0.6612100010000006  0.6281600000000012  0.1163799990000030   F   F   F
  0.0776574190519722  0.5461645188157820  0.2210883122239188   T   T   T
  0.4107899959999983  0.1271200030000017  0.1172600020000019   F   F   F
  0.4021339508429352  0.2861621783826580  0.3264026837704987   T   T   T
  0.2433346000642269  0.1261547978584338  0.2253592117565366   T   T   T
  0.6599599720000029  0.8772100210000033  0.1173700020000013   F   F   F
  0.4938600059999985  0.5440300109999967  0.1162599999999969   F   F   F
  0.8284906367860773  0.0447032566647574  0.2253349788851967   T   T   T
  0.5781297043034104  0.3777333026107876  0.3251313025648403   T   T   T
  0.9939888969551023  0.1249710634354318  0.2214306587589265   T   T   T
  0.1603299980000017  0.8765000100000009  0.1171599999999984   F   F   F
  0.2429681470818299  0.7099478399733929  0.3243600110402163   T   T   T
  0.4112486256738374  0.5449407705168514  0.3252261834442323   T   T   T
  0.2815493595098965  0.6732921754135092  0.4607473589606195   T   T   T
  0.7432900069999988  0.5439699889999972  0.1172000019999970   F   F   F
  0.5795903141461343  0.7933256147175596  0.2222504565012227   T   T   T
  0.0773800019999982  0.4608600139999979  0.1162300040000019   F   F   F
  0.5787799064242957  0.5455679572208212  0.2207777925048063   T   T   T
  0.2446548108421482  0.4602358191673727  0.3244625532018316   T   T   T
  0.0752888937303215  0.1235307426663591  0.3305637663930643   T   T   T
  0.4021718681916942  0.0434520667646414  0.3269589905306144   T   T   T
  0.3267500099999978  0.7103800180000022  0.1165499990000001   F   F   F
  0.8265220365409086  0.5463660931793191  0.2221415629173573   T   T   T
  0.9940396609154404  0.3758240313038204  0.2206776271849502   T   T   T
  0.4103232367200681  0.7099257797015425  0.2216357627980928   T   T   T
  0.4942399859999966  0.2938500050000030  0.1165400000000005   F   F   F
  0.4943054067472221  0.7116825037732994  0.3244666989211094   T   T   T
  0.2444600019999967  0.2946799990000031  0.1173999980000033   F   F   F
  0.9099803832730076  0.7113352038529954  0.2252592963299765   T   T   T
  0.8275300259999980  0.7100499869999979  0.1170900019999976   F   F   F
  0.9107437737740730  0.9607652962693423  0.2218860527155573   T   T   T
  0.6611836047406063  0.2115210375948788  0.2215184221956889   T   T   T
  0.1613519640567384  0.7137139969782463  0.2221466997988993   T   T   T
  0.7436599729999998  0.2935599979999992  0.1164999980000019   F   F   F
  0.9939000010000001  0.2933799919999984  0.1162699979999999   F   F   F
  0.4920371535878338  0.3751041213346319  0.2211088919930332   T   T   T
  0.6656398277840172  0.7970202140317588  0.3426126324197793   T   T   T
  0.4096577784408597  0.7936143033010470  0.3252670432556155   T   T   T
  0.5858654690483981  0.8783399907843727  0.3262940345952355   T   T   T
  0.3279199899999981  0.2112700050000029  0.1173600030000017   F   F   F
  0.8310824958246198  0.8790686788263355  0.3305540579491577   T   T   T
  0.3272865326933103  0.6272844032681517  0.3306789176165529   T   T   T
  0.6375897606813004  0.0907384831866968  0.4368263686658475   T   T   T
  0.7447528189470134  0.4608889845594557  0.3243054459215353   T   T   T
  0.1581768153907488  0.9606856367969313  0.2214550085345966   T   T   T
  0.7446125857108969  0.8768237665081947  0.2253723956104597   T   T   T
  0.5771700140000036  0.2112900019999984  0.1165599970000031   F   F   F
  0.4933341048766751  0.1256831830594211  0.2213402955112710   T   T   T
  0.3504271141194982  0.8311267302007399  0.4379018250402513   T   T   T
  0.0779049227124708  0.7952484103643036  0.2253674660391245   T   T   T
  0.6608099939999974  0.1279499979999983  0.1164899990000023   F   F   F
  0.0774300019999998  0.7106000189999975  0.1172699999999978   F   F   F
  0.4107800130000001  0.6279500130000031  0.1166199970000008   F   F   F
  0.7469584393760396  0.1281067019918740  0.2221336276684070   T   T   T
  0.1611600069999994  0.6277800200000030  0.1165099959999978   F   F   F
  0.3192230090229095  0.8777073326555280  0.3269664031319126   T   T   T
  0.0776699999999977  0.9608799820000016  0.1162500009999974   F   F   F
  0.5753617680636719  0.9606812567270582  0.4016264216567713   T   T   T
  0.5862033148601828  0.1446524797289997  0.5056943615178161   T   T   T
  0.5769009661394632  0.5434425187699039  0.4033852680443180   T   T   T
  0.1782943573660923  0.5530355716179299  0.5052460680654071   T   T   T
  0.5858229762133135  0.3683923742721374  0.5057035227037525   T   T   T
  0.4016280957843888  0.5525312202095737  0.5053764188485197   T   T   T
  0.9938953983930183  0.5419517300560367  0.4015558104503160   T   T   T
  0.4126325113866742  0.3792124477129115  0.4016448848408462   T   T   T
  0.4021224855516838  0.7762598328992690  0.5053220262309206   T   T   T
  0.4111582843089231  0.9607074207980646  0.4033943425779291   T   T   T
  0.9938953864546047  0.3777276608182539  0.4033724910867396   T   T   T
  0.8099291964927501  0.3688111011922549  0.5056539033582015   T   T   T
  0.7762235278679182  0.1789491607268544  0.4158019011568789   T   T   T
  0.4299548631635316  0.1783278428204889  0.4158770727654674   T   T   T
  0.7756035016118578  0.5246318510646431  0.4158049189309804   T   T   T
  0.5584290775545540  0.7423986183310506  0.4158590628805081   T   T   T
  0.2114427537913091  0.3961922946963819  0.4158729320812912   T   T   T
  0.2122273639550885  0.7431647470185905  0.4158252828690651   T   T   T
 
  0.00000000E+00  0.00000000E+00  0.00000000E+00
  0.00000000E+00  0.00000000E+00  0.00000000E+00
  0.00000000E+00  0.00000000E+00  0.00000000E+00
  0.00000000E+00  0.00000000E+00  0.00000000E+00
  0.00000000E+00  0.00000000E+00  0.00000000E+00
  0.00000000E+00  0.00000000E+00  0.00000000E+00
  0.00000000E+00  0.00000000E+00  0.00000000E+00
  0.00000000E+00  0.00000000E+00  0.00000000E+00
  0.00000000E+00  0.00000000E+00  0.00000000E+00
  0.00000000E+00  0.00000000E+00  0.00000000E+00
  0.00000000E+00  0.00000000E+00  0.00000000E+00
  0.00000000E+00  0.00000000E+00  0.00000000E+00
  0.00000000E+00  0.00000000E+00  0.00000000E+00
  0.00000000E+00  0.00000000E+00  0.00000000E+00
  0.00000000E+00  0.00000000E+00  0.00000000E+00
  0.00000000E+00  0.00000000E+00  0.00000000E+00
  0.00000000E+00  0.00000000E+00  0.00000000E+00
  0.00000000E+00  0.00000000E+00  0.00000000E+00
  0.00000000E+00  0.00000000E+00  0.00000000E+00
  0.00000000E+00  0.00000000E+00  0.00000000E+00
  0.00000000E+00  0.00000000E+00  0.00000000E+00
  0.00000000E+00  0.00000000E+00  0.00000000E+00
  0.00000000E+00  0.00000000E+00  0.00000000E+00
  0.00000000E+00  0.00000000E+00  0.00000000E+00
  0.00000000E+00  0.00000000E+00  0.00000000E+00
  0.00000000E+00  0.00000000E+00  0.00000000E+00
  0.00000000E+00  0.00000000E+00  0.00000000E+00
  0.00000000E+00  0.00000000E+00  0.00000000E+00
  0.00000000E+00  0.00000000E+00  0.00000000E+00
  0.00000000E+00  0.00000000E+00  0.00000000E+00
  0.00000000E+00  0.00000000E+00  0.00000000E+00
  0.00000000E+00  0.00000000E+00  0.00000000E+00
  0.00000000E+00  0.00000000E+00  0.00000000E+00
  0.00000000E+00  0.00000000E+00  0.00000000E+00
  0.00000000E+00  0.00000000E+00  0.00000000E+00
  0.00000000E+00  0.00000000E+00  0.00000000E+00
  0.00000000E+00  0.00000000E+00  0.00000000E+00
  0.00000000E+00  0.00000000E+00  0.00000000E+00
  0.00000000E+00  0.00000000E+00  0.00000000E+00
  0.00000000E+00  0.00000000E+00  0.00000000E+00
  0.00000000E+00  0.00000000E+00  0.00000000E+00
  0.00000000E+00  0.00000000E+00  0.00000000E+00
  0.00000000E+00  0.00000000E+00  0.00000000E+00
  0.00000000E+00  0.00000000E+00  0.00000000E+00
  0.00000000E+00  0.00000000E+00  0.00000000E+00
  0.00000000E+00  0.00000000E+00  0.00000000E+00
  0.00000000E+00  0.00000000E+00  0.00000000E+00
  0.00000000E+00  0.00000000E+00  0.00000000E+00
  0.00000000E+00  0.00000000E+00  0.00000000E+00
  0.00000000E+00  0.00000000E+00  0.00000000E+00
  0.00000000E+00  0.00000000E+00  0.00000000E+00
  0.00000000E+00  0.00000000E+00  0.00000000E+00
  0.00000000E+00  0.00000000E+00  0.00000000E+00
  0.00000000E+00  0.00000000E+00  0.00000000E+00
  0.00000000E+00  0.00000000E+00  0.00000000E+00
  0.00000000E+00  0.00000000E+00  0.00000000E+00
  0.00000000E+00  0.00000000E+00  0.00000000E+00
  0.00000000E+00  0.00000000E+00  0.00000000E+00
  0.00000000E+00  0.00000000E+00  0.00000000E+00
  0.00000000E+00  0.00000000E+00  0.00000000E+00
  0.00000000E+00  0.00000000E+00  0.00000000E+00
  0.00000000E+00  0.00000000E+00  0.00000000E+00
  0.00000000E+00  0.00000000E+00  0.00000000E+00
  0.00000000E+00  0.00000000E+00  0.00000000E+00
  0.00000000E+00  0.00000000E+00  0.00000000E+00
  0.00000000E+00  0.00000000E+00  0.00000000E+00
  0.00000000E+00  0.00000000E+00  0.00000000E+00
  0.00000000E+00  0.00000000E+00  0.00000000E+00
  0.00000000E+00  0.00000000E+00  0.00000000E+00
  0.00000000E+00  0.00000000E+00  0.00000000E+00
  0.00000000E+00  0.00000000E+00  0.00000000E+00
  0.00000000E+00  0.00000000E+00  0.00000000E+00
  0.00000000E+00  0.00000000E+00  0.00000000E+00
  0.00000000E+00  0.00000000E+00  0.00000000E+00
  0.00000000E+00  0.00000000E+00  0.00000000E+00
  0.00000000E+00  0.00000000E+00  0.00000000E+00
  0.00000000E+00  0.00000000E+00  0.00000000E+00
  0.00000000E+00  0.00000000E+00  0.00000000E+00
  0.00000000E+00  0.00000000E+00  0.00000000E+00
  0.00000000E+00  0.00000000E+00  0.00000000E+00
  0.00000000E+00  0.00000000E+00  0.00000000E+00
  0.00000000E+00  0.00000000E+00  0.00000000E+00
  0.00000000E+00  0.00000000E+00  0.00000000E+00
  0.00000000E+00  0.00000000E+00  0.00000000E+00
  0.00000000E+00  0.00000000E+00  0.00000000E+00
  0.00000000E+00  0.00000000E+00  0.00000000E+00
  0.00000000E+00  0.00000000E+00  0.00000000E+00
  0.00000000E+00  0.00000000E+00  0.00000000E+00
  0.00000000E+00  0.00000000E+00  0.00000000E+00
  0.00000000E+00  0.00000000E+00  0.00000000E+00
  0.00000000E+00  0.00000000E+00  0.00000000E+00
  0.00000000E+00  0.00000000E+00  0.00000000E+00
  0.00000000E+00  0.00000000E+00  0.00000000E+00
  0.00000000E+00  0.00000000E+00  0.00000000E+00
  0.00000000E+00  0.00000000E+00  0.00000000E+00
  0.00000000E+00  0.00000000E+00  0.00000000E+00
  0.00000000E+00  0.00000000E+00  0.00000000E+00
  0.00000000E+00  0.00000000E+00  0.00000000E+00
  0.00000000E+00  0.00000000E+00  0.00000000E+00
  0.00000000E+00  0.00000000E+00  0.00000000E+00
  0.00000000E+00  0.00000000E+00  0.00000000E+00
  0.00000000E+00  0.00000000E+00  0.00000000E+00
  0.00000000E+00  0.00000000E+00  0.00000000E+00
  0.00000000E+00  0.00000000E+00  0.00000000E+00
  0.00000000E+00  0.00000000E+00  0.00000000E+00
  0.00000000E+00  0.00000000E+00  0.00000000E+00
  0.00000000E+00  0.00000000E+00  0.00000000E+00
  0.00000000E+00  0.00000000E+00  0.00000000E+00
  0.00000000E+00  0.00000000E+00  0.00000000E+00
  0.00000000E+00  0.00000000E+00  0.00000000E+00
  0.00000000E+00  0.00000000E+00  0.00000000E+00
  0.00000000E+00  0.00000000E+00  0.00000000E+00
  0.00000000E+00  0.00000000E+00  0.00000000E+00
  0.00000000E+00  0.00000000E+00  0.00000000E+00
  0.00000000E+00  0.00000000E+00  0.00000000E+00
  0.00000000E+00  0.00000000E+00  0.00000000E+00
  0.00000000E+00  0.00000000E+00  0.00000000E+00
  0.00000000E+00  0.00000000E+00  0.00000000E+00
  0.00000000E+00  0.00000000E+00  0.00000000E+00
  0.00000000E+00  0.00000000E+00  0.00000000E+00
  0.00000000E+00  0.00000000E+00  0.00000000E+00
  0.00000000E+00  0.00000000E+00  0.00000000E+00
  0.00000000E+00  0.00000000E+00  0.00000000E+00
  0.00000000E+00  0.00000000E+00  0.00000000E+00
  0.00000000E+00  0.00000000E+00  0.00000000E+00
  0.00000000E+00  0.00000000E+00  0.00000000E+00
  0.00000000E+00  0.00000000E+00  0.00000000E+00
  0.00000000E+00  0.00000000E+00  0.00000000E+00
  0.00000000E+00  0.00000000E+00  0.00000000E+00
  0.00000000E+00  0.00000000E+00  0.00000000E+00
  0.00000000E+00  0.00000000E+00  0.00000000E+00
  0.00000000E+00  0.00000000E+00  0.00000000E+00
  0.00000000E+00  0.00000000E+00  0.00000000E+00
  0.00000000E+00  0.00000000E+00  0.00000000E+00
  0.00000000E+00  0.00000000E+00  0.00000000E+00
  0.00000000E+00  0.00000000E+00  0.00000000E+00
  0.00000000E+00  0.00000000E+00  0.00000000E+00
  0.00000000E+00  0.00000000E+00  0.00000000E+00
  0.00000000E+00  0.00000000E+00  0.00000000E+00
  0.00000000E+00  0.00000000E+00  0.00000000E+00
  0.00000000E+00  0.00000000E+00  0.00000000E+00
  0.00000000E+00  0.00000000E+00  0.00000000E+00
  0.00000000E+00  0.00000000E+00  0.00000000E+00
  0.00000000E+00  0.00000000E+00  0.00000000E+00
  0.00000000E+00  0.00000000E+00  0.00000000E+00
  0.00000000E+00  0.00000000E+00  0.00000000E+00
  0.00000000E+00  0.00000000E+00  0.00000000E+00
  0.00000000E+00  0.00000000E+00  0.00000000E+00
  0.00000000E+00  0.00000000E+00  0.00000000E+00
  0.00000000E+00  0.00000000E+00  0.00000000E+00
  0.00000000E+00  0.00000000E+00  0.00000000E+00
  0.00000000E+00  0.00000000E+00  0.00000000E+00
  0.00000000E+00  0.00000000E+00  0.00000000E+00
  0.00000000E+00  0.00000000E+00  0.00000000E+00
  0.00000000E+00  0.00000000E+00  0.00000000E+00
  0.00000000E+00  0.00000000E+00  0.00000000E+00
  0.00000000E+00  0.00000000E+00  0.00000000E+00
  0.00000000E+00  0.00000000E+00  0.00000000E+00
  0.00000000E+00  0.00000000E+00  0.00000000E+00
  0.00000000E+00  0.00000000E+00  0.00000000E+00
  0.00000000E+00  0.00000000E+00  0.00000000E+00
  0.00000000E+00  0.00000000E+00  0.00000000E+00
  0.00000000E+00  0.00000000E+00  0.00000000E+00
  0.00000000E+00  0.00000000E+00  0.00000000E+00
  0.00000000E+00  0.00000000E+00  0.00000000E+00
  0.00000000E+00  0.00000000E+00  0.00000000E+00
  0.00000000E+00  0.00000000E+00  0.00000000E+00
  0.00000000E+00  0.00000000E+00  0.00000000E+00
  0.00000000E+00  0.00000000E+00  0.00000000E+00
  0.00000000E+00  0.00000000E+00  0.00000000E+00
  0.00000000E+00  0.00000000E+00  0.00000000E+00
  0.00000000E+00  0.00000000E+00  0.00000000E+00
  0.00000000E+00  0.00000000E+00  0.00000000E+00
  0.00000000E+00  0.00000000E+00  0.00000000E+00
  0.00000000E+00  0.00000000E+00  0.00000000E+00
  0.00000000E+00  0.00000000E+00  0.00000000E+00
  0.00000000E+00  0.00000000E+00  0.00000000E+00
  0.00000000E+00  0.00000000E+00  0.00000000E+00
  0.00000000E+00  0.00000000E+00  0.00000000E+00
  0.00000000E+00  0.00000000E+00  0.00000000E+00
