r3\(2)
1.0
        4.8593001366         0.0000000000         0.0000000000
       -2.4296500683         4.2082773629         0.0000000000
        0.0000000000         0.0000000000        22.0000000000
    C    P
    4    1
Direct
     0.000000000         0.000000000         0.653879976
     0.833449960         0.666689992         0.753830028
     0.333330035         0.666620016         0.853820014
     0.499950051         0.499940038         0.553879976
     0.666560054         0.833940029         0.553879976 
