CONTCAR\(0\1\0)                         
   2.00000000000000     
     4.4278998375000000    0.0000000000000000    0.0000000000000000
     0.0000000000000000    3.2980000973000001    0.0000000000000000
     0.0000000000000000    0.0000000000000000   24.1420993804999995
   P H
     3 1
Direct
  0.9174769732005829  0.0000000000000000  0.0885682485986376
  0.5825230267994171  0.5000000000000000  0.0885682485986376
  0.0825230417994148 -0.0000000000000000  0.0001617514013606
  0.4174769732005829  0.5000000000000000  0.0001617514013606
 
  0.00000000E+00  0.00000000E+00  0.00000000E+00
  0.00000000E+00  0.00000000E+00  0.00000000E+00
  0.00000000E+00  0.00000000E+00  0.00000000E+00
  0.00000000E+00  0.00000000E+00  0.00000000E+00
