r3\(2)
   1
    4.8593001365999999 0.0000000000000000 0.0000000000000000
    -2.4296500683000000 4.2082773628999997 0.0000000000000000
    0.0000000000000000 0.0000000000000000 22.0000000000000000
   C    P
   8    3
Direct
  0.0000000000000000 0.0000000000000000 0.6538799760000000  T F F
  0.8334499600000000 0.6666899920000000 0.7538300280000000  F T F
  0.3333300350000000 0.6666200160000000 0.8538200140000000  F F T
  0.4999500510000000 0.4999400380000000 0.5538799760000001  F F F
  0.8333999580020456 0.1667099819941233 0.7538300280000000  F F F
  0.4999000540041437 0.9999100070103217 0.5538799760000001  T F F
  0.3333100239920778 0.1667099819941233 0.7538300280000000  F T F
  0.9998899810100996 0.4998900440069988 0.5538799760000001  F F T
  0.6665600540000000 0.8339400290000000 0.5538799760000001  F F F
  0.1660098890216010 0.8325700800164965 0.5538799760000001  F F F
  0.1673300249945549 0.3334400729921776 0.5538799760000001  T F F

