r3\(2)
   1
    4.8593001365999999 0.0000000000000000 0.0000000000000000
    -2.4296500683000000 4.2082773628999997 0.0000000000000000
    0.0000000000000000 0.0000000000000000 22.0000000000000000
   C    P
   4    1
Selective Dynamics
Direct
  0.0000000000000000 0.0000000000000000 0.6538799760000000  T T T
  0.8334499600000000 0.6666899920000000 0.7538300280000000  T T T
  0.3333300350000000 0.6666200160000000 0.8538200140000000  T T T
  0.4999500510000000 0.4999400380000000 0.5538799760000001  T T T
  0.6665600540000000 0.8339400290000000 0.5538799760000001  T T T

  0.0000000000000000 0.0000000000000000 0.0000000000000000
  0.0000000000000000 0.0000000000000000 0.0000000000000000
  0.0000000000000000 0.0000000000000000 0.0000000000000000
  0.0000000000000000 0.0000000000000000 0.0000000000000000
  0.0000000000000000 0.0000000000000000 0.0000000000000000
